\ENCODING=ISO-8859-1
\Problem name: instances

Maximize
 obj:
Subject To
 c1: 13 x1 + 13 x2 + 94 x3 - 99 x4 + 53 x5 + 100 x6 + 2 x7 + x9 + 81 x10 <= 103
 c2: 45 x1 + 81 x2 + 44 x3 + 12 x4 + 45 x5 + 83 x6 + 37 x7 + 91 x8 + 3 x9
     + 87 x10 <= 335
 c3: 87 x1 + 3 x3 + 42 x4 + 23 x5 + 3 x6 + 86 x7 + 43 x8 + 30 x9 + 56 x10
     <= 301
 c4: 38 x1 + 89 x2 + 22 x3 + 15 x5 - 11 x6 + 92 x7 - 7 x8 + 49 x9 + 55 x10
     <= 272
 c5: 57 x1 + 64 x2 + 81 x3 + 69 x4 + 48 x5 + 87 x6 + 74 x7 + 18 x8 + 94 x9
     + 10 x10 <= 595
Bounds
      x1 >= 0
      x2 >= 0
      x3 >= 0
      x4 >= 0
      x5 >= 0
      x6 >= 0
      x7 >= 0
      x8 >= 0
      x9 >= 0
      x10 >= 0
Generals
 x1  x2  x3  x4  x5  x6  x7  x8  x9  x10 
End
